certificates/rado_a15_c95_N45.cnf
c Rad2 upper bound instance: x1 + 15*x2 - x3 = 95, interval [1,45]
p cnf 45 268
1 7 11 0
-1 -7 -11 0
1 8 26 0
-1 -8 -26 0
1 9 41 0
-1 -9 -41 0
2 7 12 0
-2 -7 -12 0
2 8 27 0
-2 -8 -27 0
2 9 42 0
-2 -9 -42 0
3 7 13 0
-3 -7 -13 0
3 8 28 0
-3 -8 -28 0
3 9 43 0
-3 -9 -43 0
4 7 14 0
-4 -7 -14 0
4 8 29 0
-4 -8 -29 0
4 9 44 0
-4 -9 -44 0
5 7 15 0
-5 -7 -15 0
5 8 30 0
-5 -8 -30 0
5 9 45 0
-5 -9 -45 0
1 6 0
-1 -6 0
6 7 16 0
-6 -7 -16 0
6 8 31 0
-6 -8 -31 0
2 6 7 0
-2 -6 -7 0
7 17 0
-7 -17 0
7 8 32 0
-7 -8 -32 0
3 6 8 0
-3 -6 -8 0
7 8 18 0
-7 -8 -18 0
8 33 0
-8 -33 0
4 6 9 0
-4 -6 -9 0
7 9 19 0
-7 -9 -19 0
8 9 34 0
-8 -9 -34 0
5 6 10 0
-5 -6 -10 0
7 10 20 0
-7 -10 -20 0
8 10 35 0
-8 -10 -35 0
6 11 0
-6 -11 0
7 11 21 0
-7 -11 -21 0
8 11 36 0
-8 -11 -36 0
6 7 12 0
-6 -7 -12 0
7 12 22 0
-7 -12 -22 0
8 12 37 0
-8 -12 -37 0
6 8 13 0
-6 -8 -13 0
7 13 23 0
-7 -13 -23 0
8 13 38 0
-8 -13 -38 0
6 9 14 0
-6 -9 -14 0
7 14 24 0
-7 -14 -24 0
8 14 39 0
-8 -14 -39 0
6 10 15 0
-6 -10 -15 0
7 15 25 0
-7 -15 -25 0
8 15 40 0
-8 -15 -40 0
6 11 16 0
-6 -11 -16 0
7 16 26 0
-7 -16 -26 0
8 16 41 0
-8 -16 -41 0
6 12 17 0
-6 -12 -17 0
7 17 27 0
-7 -17 -27 0
8 17 42 0
-8 -17 -42 0
6 13 18 0
-6 -13 -18 0
7 18 28 0
-7 -18 -28 0
8 18 43 0
-8 -18 -43 0
6 14 19 0
-6 -14 -19 0
7 19 29 0
-7 -19 -29 0
8 19 44 0
-8 -19 -44 0
6 15 20 0
-6 -15 -20 0
7 20 30 0
-7 -20 -30 0
8 20 45 0
-8 -20 -45 0
1 5 21 0
-1 -5 -21 0
6 16 21 0
-6 -16 -21 0
7 21 31 0
-7 -21 -31 0
2 5 22 0
-2 -5 -22 0
6 17 22 0
-6 -17 -22 0
7 22 32 0
-7 -22 -32 0
3 5 23 0
-3 -5 -23 0
6 18 23 0
-6 -18 -23 0
7 23 33 0
-7 -23 -33 0
4 5 24 0
-4 -5 -24 0
6 19 24 0
-6 -19 -24 0
7 24 34 0
-7 -24 -34 0
5 25 0
-5 -25 0
6 20 25 0
-6 -20 -25 0
7 25 35 0
-7 -25 -35 0
5 6 26 0
-5 -6 -26 0
6 21 26 0
-6 -21 -26 0
7 26 36 0
-7 -26 -36 0
5 7 27 0
-5 -7 -27 0
6 22 27 0
-6 -22 -27 0
7 27 37 0
-7 -27 -37 0
5 8 28 0
-5 -8 -28 0
6 23 28 0
-6 -23 -28 0
7 28 38 0
-7 -28 -38 0
5 9 29 0
-5 -9 -29 0
6 24 29 0
-6 -24 -29 0
7 29 39 0
-7 -29 -39 0
5 10 30 0
-5 -10 -30 0
6 25 30 0
-6 -25 -30 0
7 30 40 0
-7 -30 -40 0
5 11 31 0
-5 -11 -31 0
6 26 31 0
-6 -26 -31 0
7 31 41 0
-7 -31 -41 0
5 12 32 0
-5 -12 -32 0
6 27 32 0
-6 -27 -32 0
7 32 42 0
-7 -32 -42 0
5 13 33 0
-5 -13 -33 0
6 28 33 0
-6 -28 -33 0
7 33 43 0
-7 -33 -43 0
5 14 34 0
-5 -14 -34 0
6 29 34 0
-6 -29 -34 0
7 34 44 0
-7 -34 -44 0
5 15 35 0
-5 -15 -35 0
6 30 35 0
-6 -30 -35 0
7 35 45 0
-7 -35 -45 0
1 4 36 0
-1 -4 -36 0
5 16 36 0
-5 -16 -36 0
6 31 36 0
-6 -31 -36 0
2 4 37 0
-2 -4 -37 0
5 17 37 0
-5 -17 -37 0
6 32 37 0
-6 -32 -37 0
3 4 38 0
-3 -4 -38 0
5 18 38 0
-5 -18 -38 0
6 33 38 0
-6 -33 -38 0
4 39 0
-4 -39 0
5 19 39 0
-5 -19 -39 0
6 34 39 0
-6 -34 -39 0
4 5 40 0
-4 -5 -40 0
5 20 40 0
-5 -20 -40 0
6 35 40 0
-6 -35 -40 0
4 6 41 0
-4 -6 -41 0
5 21 41 0
-5 -21 -41 0
6 36 41 0
-6 -36 -41 0
4 7 42 0
-4 -7 -42 0
5 22 42 0
-5 -22 -42 0
6 37 42 0
-6 -37 -42 0
4 8 43 0
-4 -8 -43 0
5 23 43 0
-5 -23 -43 0
6 38 43 0
-6 -38 -43 0
5 24 44 0
-5 -24 -44 0
6 39 44 0
-6 -39 -44 0
4 10 45 0
-4 -10 -45 0
5 25 45 0
-5 -25 -45 0
6 40 45 0
-6 -40 -45 0
