certificates/rado_a15_c95_N45.drat
-40 -41 -45 0
6 10 40 0
-6 -41 -44 0
-41 -44 -45 0
4 41 -44 0
41 -44 0
d 4 41 -44 0
-44 -45 0
d -41 -44 -45 0
6 41 0
41 -45 0
-6 -41 0
d -6 -41 -44 0
-45 0
-41 0
-44 0
6 0
-1 0
-11 0
9 0
7 0
-19 0
-14 0
-4 0
-17 0
-16 0
-12 0
-2 0
8 0
39 0
10 0
36 0
37 0
-31 0
-32 0
-18 0
-33 0
-34 0
-13 0
-3 0
-35 0
-29 0
-15 0
-5 0
-20 0
-26 0
-42 0
-27 0
0
